(set-info :smt-lib-version 2.6)
(set-logic QF_NIA)
(set-info :source |
Generated by: Cristina Borralleras, Daniel Larraz, Albert Oliveras, Enric Rodriguez-Carbonell, Albert Rubio
Generated on: 2017-04-27
Generator: VeryMax
Application: Termination proving
Target solver: barcelogic
|)
(set-info :license "https://creativecommons.org/licenses/by/4.0/")
(set-info :category "industrial")
(set-info :status unknown)
(declare-fun Nl2arg11 () Int)
(declare-fun Nl2arg21 () Int)
(declare-fun Nl2arg31 () Int)
(declare-fun Nl2arg41 () Int)
(declare-fun Nl2arg51 () Int)
(declare-fun Nl2arg61 () Int)
(declare-fun lam0n0 () Int)
(declare-fun lam0n1 () Int)
(declare-fun lam0n2 () Int)
(declare-fun lam0n3 () Int)
(declare-fun lam0n4 () Int)
(declare-fun lam0n5 () Int)
(declare-fun lam0n6 () Int)
(declare-fun lam0n7 () Int)
(declare-fun lam0n9 () Int)
(declare-fun lam0n10 () Int)
(declare-fun UndefCntr0_CT () Int)
(declare-fun Nl2CT1 () Int)
(declare-fun UndefCntr0_arg1 () Int)
(declare-fun UndefCntr0_arg2 () Int)
(declare-fun UndefCntr0_arg3 () Int)
(declare-fun UndefCntr0_arg4 () Int)
(declare-fun UndefCntr0_arg5 () Int)
(declare-fun UndefCntr0_arg6 () Int)
(declare-fun UndefCntr0_undef13 () Int)
(declare-fun lam0n8 () Int)
(declare-fun UndefCntr0_undef15 () Int)
(declare-fun UndefCntr0_undef16 () Int)
(declare-fun UndefCntr0_undef17 () Int)
(declare-fun UndefCntr0_undef18 () Int)
(declare-fun lam1n0 () Int)
(declare-fun lam1n1 () Int)
(declare-fun lam1n2 () Int)
(declare-fun lam1n3 () Int)
(declare-fun lam1n4 () Int)
(declare-fun lam1n5 () Int)
(declare-fun lam1n6 () Int)
(declare-fun lam1n7 () Int)
(declare-fun lam1n9 () Int)
(declare-fun lam1n10 () Int)
(declare-fun lam1n8 () Int)
(declare-fun lam2n0 () Int)
(declare-fun lam2n1 () Int)
(declare-fun lam2n2 () Int)
(declare-fun lam2n3 () Int)
(declare-fun lam2n4 () Int)
(declare-fun lam2n5 () Int)
(declare-fun lam2n6 () Int)
(declare-fun lam2n7 () Int)
(declare-fun lam2n9 () Int)
(declare-fun lam2n10 () Int)
(declare-fun UndefCntr1_CT () Int)
(declare-fun lam2n8 () Int)
(declare-fun UndefCntr1_arg1 () Int)
(declare-fun UndefCntr1_arg2 () Int)
(declare-fun UndefCntr1_arg3 () Int)
(declare-fun UndefCntr1_arg4 () Int)
(declare-fun UndefCntr1_arg5 () Int)
(declare-fun UndefCntr1_arg6 () Int)
(declare-fun UndefCntr1_undef19 () Int)
(declare-fun UndefCntr1_undef22 () Int)
(declare-fun UndefCntr1_undef23 () Int)
(declare-fun UndefCntr1_undef24 () Int)
(declare-fun lam3n0 () Int)
(declare-fun lam3n1 () Int)
(declare-fun lam3n2 () Int)
(declare-fun lam3n3 () Int)
(declare-fun lam3n4 () Int)
(declare-fun lam3n5 () Int)
(declare-fun lam3n6 () Int)
(declare-fun lam3n7 () Int)
(declare-fun lam3n9 () Int)
(declare-fun lam3n10 () Int)
(declare-fun lam3n8 () Int)
(declare-fun lam4n0 () Int)
(declare-fun lam4n1 () Int)
(declare-fun lam4n2 () Int)
(declare-fun lam4n3 () Int)
(declare-fun lam4n4 () Int)
(declare-fun undef489 () Int)
(declare-fun undef490 () Int)
(declare-fun undef1 () Int)
(declare-fun arg2 () Int)
(declare-fun undef4 () Int)
(declare-fun undef5 () Int)
(declare-fun undef6 () Int)
(declare-fun FV_arg1_2 () Int)
(declare-fun FV_arg2_2 () Int)
(declare-fun FV_arg3_2 () Int)
(declare-fun FV_arg4_2 () Int)
(declare-fun FV_arg5_2 () Int)
(declare-fun FV_arg6_2 () Int)
(declare-fun lam5n0 () Int)
(declare-fun lam5n1 () Int)
(declare-fun lam5n2 () Int)
(declare-fun lam5n3 () Int)
(declare-fun lam5n4 () Int)
(declare-fun lam5n5 () Int)
(declare-fun lam5n7 () Int)
(declare-fun lam5n6 () Int)
(declare-fun lam6n0 () Int)
(declare-fun lam6n1 () Int)
(declare-fun lam6n2 () Int)
(declare-fun lam6n3 () Int)
(declare-fun lam6n4 () Int)
(declare-fun lam6n5 () Int)
(declare-fun lam6n7 () Int)
(declare-fun UndefDef0undef13_CT () Int)
(declare-fun UndefDef0undef13_arg1 () Int)
(declare-fun UndefDef0undef13_arg2 () Int)
(declare-fun UndefDef0undef13_arg3 () Int)
(declare-fun UndefDef0undef13_arg4 () Int)
(declare-fun UndefDef0undef13_arg5 () Int)
(declare-fun UndefDef0undef13_arg6 () Int)
(declare-fun lam6n6 () Int)
(declare-fun lam7n0 () Int)
(declare-fun lam7n1 () Int)
(declare-fun lam7n2 () Int)
(declare-fun lam7n3 () Int)
(declare-fun lam7n4 () Int)
(declare-fun lam7n5 () Int)
(declare-fun lam7n7 () Int)
(declare-fun lam7n6 () Int)
(declare-fun lam8n0 () Int)
(declare-fun lam8n1 () Int)
(declare-fun lam8n2 () Int)
(declare-fun lam8n3 () Int)
(declare-fun lam8n4 () Int)
(declare-fun lam8n5 () Int)
(declare-fun lam8n7 () Int)
(declare-fun lam8n6 () Int)
(declare-fun lam9n0 () Int)
(declare-fun lam9n1 () Int)
(declare-fun lam9n2 () Int)
(declare-fun lam9n3 () Int)
(declare-fun lam9n4 () Int)
(declare-fun lam9n5 () Int)
(declare-fun lam9n6 () Int)
(declare-fun lam9n7 () Int)
(declare-fun lam10n0 () Int)
(declare-fun lam10n1 () Int)
(declare-fun lam10n2 () Int)
(declare-fun lam10n3 () Int)
(declare-fun lam10n4 () Int)
(declare-fun lam10n5 () Int)
(declare-fun lam10n6 () Int)
(declare-fun lam10n7 () Int)
(declare-fun UndefDef1undef19_CT () Int)
(declare-fun UndefDef1undef19_arg1 () Int)
(declare-fun UndefDef1undef19_arg2 () Int)
(declare-fun UndefDef1undef19_arg3 () Int)
(declare-fun UndefDef1undef19_arg4 () Int)
(declare-fun UndefDef1undef19_arg5 () Int)
(declare-fun UndefDef1undef19_arg6 () Int)
(declare-fun lam11n0 () Int)
(declare-fun lam11n1 () Int)
(declare-fun lam11n2 () Int)
(declare-fun lam11n3 () Int)
(declare-fun lam11n4 () Int)
(declare-fun lam11n5 () Int)
(declare-fun lam11n6 () Int)
(declare-fun lam11n7 () Int)
(declare-fun lam12n0 () Int)
(declare-fun lam12n1 () Int)
(declare-fun lam12n2 () Int)
(declare-fun lam12n3 () Int)
(declare-fun lam12n4 () Int)
(declare-fun lam12n5 () Int)
(declare-fun lam12n6 () Int)
(declare-fun lam12n7 () Int)
(declare-fun lam13n0 () Int)
(declare-fun lam13n1 () Int)
(declare-fun lam13n2 () Int)
(declare-fun lam13n3 () Int)
(declare-fun lam13n4 () Int)
(declare-fun lam13n5 () Int)
(declare-fun lam13n6 () Int)
(declare-fun lam13n7 () Int)
(declare-fun FV_undef15_0 () Int)
(declare-fun FV_arg1_0 () Int)
(declare-fun FV_arg2_0 () Int)
(declare-fun FV_arg3_0 () Int)
(declare-fun FV_arg4_0 () Int)
(declare-fun FV_arg5_0 () Int)
(declare-fun FV_arg6_0 () Int)
(declare-fun FV_undef13_0 () Int)
(declare-fun FV_undef16_0 () Int)
(declare-fun FV_undef17_0 () Int)
(declare-fun FV_undef18_0 () Int)
(declare-fun lam14n0 () Int)
(declare-fun lam14n1 () Int)
(declare-fun lam14n2 () Int)
(declare-fun lam14n3 () Int)
(declare-fun lam14n4 () Int)
(declare-fun lam14n5 () Int)
(declare-fun lam14n6 () Int)
(declare-fun FV_arg1_3 () Int)
(declare-fun FV_arg2_3 () Int)
(declare-fun FV_arg3_3 () Int)
(declare-fun FV_arg4_3 () Int)
(declare-fun FV_arg5_3 () Int)
(declare-fun FV_arg6_3 () Int)
(declare-fun FV_undef13_3 () Int)
(declare-fun FV_undef15_3 () Int)
(declare-fun FV_undef19_3 () Int)
(assert ( and ( <= ( - 1 ) Nl2arg11 ) ( <= Nl2arg11 1 ) ( <= ( - 1 ) Nl2arg21 ) ( <= Nl2arg21 1 ) ( <= ( - 1 ) Nl2arg31 ) ( <= Nl2arg31 1 ) ( <= ( - 1 ) Nl2arg41 ) ( <= Nl2arg41 1 ) ( <= ( - 1 ) Nl2arg51 ) ( <= Nl2arg51 1 ) ( <= ( - 1 ) Nl2arg61 ) ( <= Nl2arg61 1 ) ))
(assert ( or ( and ( >= lam0n0 0 ) ( >= lam0n1 0 ) ( >= lam0n2 0 ) ( >= lam0n3 0 ) ( >= lam0n4 0 ) ( >= lam0n5 0 ) ( >= lam0n6 0 ) ( >= lam0n7 0 ) ( >= lam0n9 0 ) ( >= lam0n10 0 ) ( > ( + ( * 2 lam0n0 ) ( * 2 lam0n1 ) ( * 1 lam0n2 ) ( * ( - 1 ) lam0n3 ) ( * 3 lam0n6 ) ( * 3 lam0n7 ) ( * UndefCntr0_CT lam0n9 ) ( * Nl2CT1 lam0n10 ) ( - 1 ) ) 0 ) ( = ( + ( * 1 lam0n0 ) ( * ( - 1 ) lam0n1 ) ( * ( - 1 ) lam0n3 ) ( * ( - 1 ) lam0n4 ) ( * ( - 1 ) lam0n6 ) ( * UndefCntr0_arg1 lam0n9 ) ( * Nl2arg11 lam0n10 ) ) 0 ) ( = ( + ( * ( - 1 ) lam0n0 ) ( * ( - 1 ) lam0n1 ) ( * 1 lam0n2 ) ( * ( - 1 ) lam0n5 ) ( * UndefCntr0_arg2 lam0n9 ) ( * Nl2arg21 lam0n10 ) ) 0 ) ( = ( + ( * 1 lam0n1 ) ( * ( - 1 ) lam0n2 ) ( * ( - 1 ) lam0n3 ) ( * UndefCntr0_arg3 lam0n9 ) ( * Nl2arg31 lam0n10 ) ) 0 ) ( = ( + ( * UndefCntr0_arg4 lam0n9 ) ( * Nl2arg41 lam0n10 ) ) 0 ) ( = ( + ( * UndefCntr0_arg5 lam0n9 ) ( * Nl2arg51 lam0n10 ) ) 0 ) ( = ( + ( * UndefCntr0_arg6 lam0n9 ) ( * Nl2arg61 lam0n10 ) ) 0 ) ( = ( + ( * 1 lam0n4 ) ( * ( - 1 ) lam0n7 ) ( * UndefCntr0_undef13 lam0n9 ) ) 0 ) ( = ( + ( * 1 lam0n8 ) ( * UndefCntr0_undef15 lam0n9 ) ) 0 ) ( = ( * UndefCntr0_undef16 lam0n9 ) 0 ) ( = ( * UndefCntr0_undef17 lam0n9 ) 0 ) ( = ( * UndefCntr0_undef18 lam0n9 ) 0 ) ) ( and ( >= lam1n0 0 ) ( >= lam1n1 0 ) ( >= lam1n2 0 ) ( >= lam1n3 0 ) ( >= lam1n4 0 ) ( >= lam1n5 0 ) ( >= lam1n6 0 ) ( >= lam1n7 0 ) ( >= lam1n9 0 ) ( >= lam1n10 0 ) ( > ( + ( * 2 lam1n0 ) ( * 2 lam1n1 ) ( * 1 lam1n2 ) ( * ( - 1 ) lam1n3 ) ( * 3 lam1n6 ) ( * 3 lam1n7 ) ( * UndefCntr0_CT lam1n9 ) ( * Nl2CT1 lam1n10 ) ( - 1 ( + ( + ( + ( + ( + ( + Nl2CT1 ( * Nl2arg11 0 ) ) ( * Nl2arg21 1 ) ) ( * Nl2arg31 0 ) ) ( * Nl2arg41 0 ) ) ( * Nl2arg51 0 ) ) ( * Nl2arg61 0 ) ) ) ) 0 ) ( = ( + ( * 1 lam1n0 ) ( * ( - 1 ) lam1n1 ) ( * ( - 1 ) lam1n3 ) ( * ( - 1 ) lam1n4 ) ( * ( - 1 ) lam1n6 ) ( * UndefCntr0_arg1 lam1n9 ) ( * Nl2arg11 lam1n10 ) ) 0 ) ( = ( + ( * ( - 1 ) lam1n0 ) ( * ( - 1 ) lam1n1 ) ( * 1 lam1n2 ) ( * ( - 1 ) lam1n5 ) ( * UndefCntr0_arg2 lam1n9 ) ( * Nl2arg21 lam1n10 ) ( - ( + 0 ( * Nl2arg21 1 ) ) ) ) 0 ) ( = ( + ( * 1 lam1n1 ) ( * ( - 1 ) lam1n2 ) ( * ( - 1 ) lam1n3 ) ( * UndefCntr0_arg3 lam1n9 ) ( * Nl2arg31 lam1n10 ) ) 0 ) ( = ( + ( * UndefCntr0_arg4 lam1n9 ) ( * Nl2arg41 lam1n10 ) ) 0 ) ( = ( + ( * UndefCntr0_arg5 lam1n9 ) ( * Nl2arg51 lam1n10 ) ) 0 ) ( = ( + ( * UndefCntr0_arg6 lam1n9 ) ( * Nl2arg61 lam1n10 ) ) 0 ) ( = ( + ( * 1 lam1n4 ) ( * ( - 1 ) lam1n7 ) ( * UndefCntr0_undef13 lam1n9 ) ( - ( + 0 ( * Nl2arg11 1 ) ) ) ) 0 ) ( = ( + ( * 1 lam1n8 ) ( * UndefCntr0_undef15 lam1n9 ) ( - ( + 0 ( * Nl2arg31 1 ) ) ) ) 0 ) ( = ( + ( * UndefCntr0_undef16 lam1n9 ) ( - ( + 0 ( * Nl2arg41 1 ) ) ) ) 0 ) ( = ( + ( * UndefCntr0_undef17 lam1n9 ) ( - ( + 0 ( * Nl2arg51 1 ) ) ) ) 0 ) ( = ( + ( * UndefCntr0_undef18 lam1n9 ) ( - ( + 0 ( * Nl2arg61 1 ) ) ) ) 0 ) ) ))
(assert ( or ( and ( >= lam2n0 0 ) ( >= lam2n1 0 ) ( >= lam2n2 0 ) ( >= lam2n3 0 ) ( >= lam2n4 0 ) ( >= lam2n5 0 ) ( >= lam2n6 0 ) ( >= lam2n7 0 ) ( >= lam2n9 0 ) ( >= lam2n10 0 ) ( > ( + ( * 2 lam2n0 ) ( * 2 lam2n1 ) ( * 1 lam2n2 ) ( * ( - 1 ) lam2n3 ) ( * 3 lam2n6 ) ( * 3 lam2n7 ) ( * UndefCntr1_CT lam2n9 ) ( * Nl2CT1 lam2n10 ) ( - 1 ) ) 0 ) ( = ( + ( * 1 lam2n0 ) ( * ( - 1 ) lam2n1 ) ( * ( - 1 ) lam2n3 ) ( * ( - 1 ) lam2n6 ) ( * 1 lam2n8 ) ( * UndefCntr1_arg1 lam2n9 ) ( * Nl2arg11 lam2n10 ) ) 0 ) ( = ( + ( * ( - 1 ) lam2n0 ) ( * ( - 1 ) lam2n1 ) ( * 1 lam2n2 ) ( * ( - 1 ) lam2n4 ) ( * UndefCntr1_arg2 lam2n9 ) ( * Nl2arg21 lam2n10 ) ) 0 ) ( = ( + ( * 1 lam2n1 ) ( * ( - 1 ) lam2n2 ) ( * ( - 1 ) lam2n3 ) ( * ( - 1 ) lam2n5 ) ( * UndefCntr1_arg3 lam2n9 ) ( * Nl2arg31 lam2n10 ) ) 0 ) ( = ( + ( * UndefCntr1_arg4 lam2n9 ) ( * Nl2arg41 lam2n10 ) ) 0 ) ( = ( + ( * UndefCntr1_arg5 lam2n9 ) ( * Nl2arg51 lam2n10 ) ) 0 ) ( = ( + ( * UndefCntr1_arg6 lam2n9 ) ( * Nl2arg61 lam2n10 ) ) 0 ) ( = ( + ( * ( - 1 ) lam2n7 ) ( * ( - 1 ) lam2n8 ) ( * UndefCntr1_undef19 lam2n9 ) ) 0 ) ( = ( * UndefCntr1_undef22 lam2n9 ) 0 ) ( = ( * UndefCntr1_undef23 lam2n9 ) 0 ) ( = ( * UndefCntr1_undef24 lam2n9 ) 0 ) ) ( and ( >= lam3n0 0 ) ( >= lam3n1 0 ) ( >= lam3n2 0 ) ( >= lam3n3 0 ) ( >= lam3n4 0 ) ( >= lam3n5 0 ) ( >= lam3n6 0 ) ( >= lam3n7 0 ) ( >= lam3n9 0 ) ( >= lam3n10 0 ) ( > ( + ( * 2 lam3n0 ) ( * 2 lam3n1 ) ( * 1 lam3n2 ) ( * ( - 1 ) lam3n3 ) ( * 3 lam3n6 ) ( * 3 lam3n7 ) ( * UndefCntr1_CT lam3n9 ) ( * Nl2CT1 lam3n10 ) ( - 1 ( + ( + ( + ( + ( + Nl2CT1 ( * Nl2arg11 0 ) ) ( * Nl2arg21 1 ) ) ( * Nl2arg41 0 ) ) ( * Nl2arg51 0 ) ) ( * Nl2arg61 0 ) ) ) ) 0 ) ( = ( + ( * 1 lam3n0 ) ( * ( - 1 ) lam3n1 ) ( * ( - 1 ) lam3n3 ) ( * ( - 1 ) lam3n6 ) ( * 1 lam3n8 ) ( * UndefCntr1_arg1 lam3n9 ) ( * Nl2arg11 lam3n10 ) ) 0 ) ( = ( + ( * ( - 1 ) lam3n0 ) ( * ( - 1 ) lam3n1 ) ( * 1 lam3n2 ) ( * ( - 1 ) lam3n4 ) ( * UndefCntr1_arg2 lam3n9 ) ( * Nl2arg21 lam3n10 ) ( - ( + 0 ( * Nl2arg21 1 ) ) ) ) 0 ) ( = ( + ( * 1 lam3n1 ) ( * ( - 1 ) lam3n2 ) ( * ( - 1 ) lam3n3 ) ( * ( - 1 ) lam3n5 ) ( * UndefCntr1_arg3 lam3n9 ) ( * Nl2arg31 lam3n10 ) ( - ( + 0 Nl2arg31 ) ) ) 0 ) ( = ( + ( * UndefCntr1_arg4 lam3n9 ) ( * Nl2arg41 lam3n10 ) ) 0 ) ( = ( + ( * UndefCntr1_arg5 lam3n9 ) ( * Nl2arg51 lam3n10 ) ) 0 ) ( = ( + ( * UndefCntr1_arg6 lam3n9 ) ( * Nl2arg61 lam3n10 ) ) 0 ) ( = ( + ( * ( - 1 ) lam3n7 ) ( * ( - 1 ) lam3n8 ) ( * UndefCntr1_undef19 lam3n9 ) ( - ( + 0 ( * Nl2arg11 1 ) ) ) ) 0 ) ( = ( + ( * UndefCntr1_undef22 lam3n9 ) ( - ( + 0 ( * Nl2arg41 1 ) ) ) ) 0 ) ( = ( + ( * UndefCntr1_undef23 lam3n9 ) ( - ( + 0 ( * Nl2arg51 1 ) ) ) ) 0 ) ( = ( + ( * UndefCntr1_undef24 lam3n9 ) ( - ( + 0 ( * Nl2arg61 1 ) ) ) ) 0 ) ) ))
(assert ( and ( <= ( + Nl2CT1 ( * Nl2arg11 FV_arg1_2 ) ( * Nl2arg21 FV_arg2_2 ) ( * Nl2arg31 FV_arg3_2 ) ( * Nl2arg41 FV_arg4_2 ) ( * Nl2arg51 FV_arg5_2 ) ( * Nl2arg61 FV_arg6_2 ) ) 0 ) ( <= ( * ( - 1 ) FV_arg2_2 ) 0 ) ( <= ( + ( - 1 ) ( * ( - 1 ) FV_arg1_2 ) ( * ( - 1 ) FV_arg3_2 ) ) 0 ) ( <= ( + 2 FV_arg1_2 ( * ( - 1 ) FV_arg2_2 ) ) 0 ) ( <= ( + 2 ( * ( - 1 ) FV_arg1_2 ) ( * ( - 1 ) FV_arg2_2 ) FV_arg3_2 ) 0 ) ))
(assert ( or ( not ( = UndefCntr0_arg1 0 ) ) ( not ( = UndefCntr0_arg2 0 ) ) ( not ( = UndefCntr0_arg3 0 ) ) ( not ( = UndefCntr0_arg4 0 ) ) ( not ( = UndefCntr0_arg5 0 ) ) ( not ( = UndefCntr0_arg6 0 ) ) ( not ( = UndefCntr0_undef13 0 ) ) ( not ( = UndefCntr0_undef15 0 ) ) ( not ( = UndefCntr0_undef16 0 ) ) ( not ( = UndefCntr0_undef17 0 ) ) ( not ( = UndefCntr0_undef18 0 ) ) ( = UndefCntr0_CT 0 ) ))
(assert ( or ( and ( = UndefCntr0_arg1 0 ) ( = UndefCntr0_arg2 0 ) ( = UndefCntr0_arg3 0 ) ( = UndefCntr0_arg4 0 ) ( = UndefCntr0_arg5 0 ) ( = UndefCntr0_arg6 0 ) ) ( or ( not ( = UndefCntr0_undef13 0 ) ) ( not ( = UndefCntr0_undef15 0 ) ) ( not ( = UndefCntr0_undef16 0 ) ) ( not ( = UndefCntr0_undef17 0 ) ) ( not ( = UndefCntr0_undef18 0 ) ) ) ))
(assert ( or ( not ( = UndefCntr1_arg1 0 ) ) ( not ( = UndefCntr1_arg2 0 ) ) ( not ( = UndefCntr1_arg3 0 ) ) ( not ( = UndefCntr1_arg4 0 ) ) ( not ( = UndefCntr1_arg5 0 ) ) ( not ( = UndefCntr1_arg6 0 ) ) ( not ( = UndefCntr1_undef19 0 ) ) ( not ( = UndefCntr1_undef22 0 ) ) ( not ( = UndefCntr1_undef23 0 ) ) ( not ( = UndefCntr1_undef24 0 ) ) ( = UndefCntr1_CT 0 ) ))
(assert ( or ( and ( = UndefCntr1_arg1 0 ) ( = UndefCntr1_arg2 0 ) ( = UndefCntr1_arg3 0 ) ( = UndefCntr1_arg4 0 ) ( = UndefCntr1_arg5 0 ) ( = UndefCntr1_arg6 0 ) ) ( or ( not ( = UndefCntr1_undef19 0 ) ) ( not ( = UndefCntr1_undef22 0 ) ) ( not ( = UndefCntr1_undef23 0 ) ) ( not ( = UndefCntr1_undef24 0 ) ) ) ))
(assert ( or ( and ( >= lam5n0 0 ) ( >= lam5n1 0 ) ( >= lam5n2 0 ) ( >= lam5n3 0 ) ( >= lam5n4 0 ) ( >= lam5n5 0 ) ( >= lam5n7 0 ) ( > ( + ( * 2 lam5n0 ) ( * 2 lam5n1 ) ( * 1 lam5n2 ) ( * ( - 1 ) lam5n3 ) ( * 3 lam5n5 ) ( * Nl2CT1 lam5n7 ) ( - 1 ) ) 0 ) ( = ( + ( * 1 lam5n0 ) ( * ( - 1 ) lam5n1 ) ( * ( - 1 ) lam5n3 ) ( * ( - 1 ) lam5n5 ) ( * Nl2arg11 lam5n7 ) ) 0 ) ( = ( + ( * ( - 1 ) lam5n0 ) ( * ( - 1 ) lam5n1 ) ( * 1 lam5n2 ) ( * ( - 1 ) lam5n4 ) ( * Nl2arg21 lam5n7 ) ) 0 ) ( = ( + ( * 1 lam5n1 ) ( * ( - 1 ) lam5n2 ) ( * ( - 1 ) lam5n3 ) ( * Nl2arg31 lam5n7 ) ) 0 ) ( = ( * Nl2arg41 lam5n7 ) 0 ) ( = ( * Nl2arg51 lam5n7 ) 0 ) ( = ( * Nl2arg61 lam5n7 ) 0 ) ( = ( * 1 lam5n6 ) 0 ) ) ( and ( and ( >= lam6n0 0 ) ( >= lam6n1 0 ) ( >= lam6n2 0 ) ( >= lam6n3 0 ) ( >= lam6n4 0 ) ( >= lam6n5 0 ) ( >= lam6n7 0 ) ( > ( + ( * 2 lam6n0 ) ( * 2 lam6n1 ) ( * 1 lam6n2 ) ( * ( - 1 ) lam6n3 ) ( * 3 lam6n5 ) ( * Nl2CT1 lam6n7 ) ( - 1 ( + ( + 0 0 ) ( * 1 UndefDef0undef13_CT ) ) ) ) 0 ) ( = ( + ( * 1 lam6n0 ) ( * ( - 1 ) lam6n1 ) ( * ( - 1 ) lam6n3 ) ( * ( - 1 ) lam6n5 ) ( * Nl2arg11 lam6n7 ) ( - ( + ( - 1 ) ( * UndefDef0undef13_arg1 1 ) ) ) ) 0 ) ( = ( + ( * ( - 1 ) lam6n0 ) ( * ( - 1 ) lam6n1 ) ( * 1 lam6n2 ) ( * ( - 1 ) lam6n4 ) ( * Nl2arg21 lam6n7 ) ( - ( * UndefDef0undef13_arg2 1 ) ) ) 0 ) ( = ( + ( * 1 lam6n1 ) ( * ( - 1 ) lam6n2 ) ( * ( - 1 ) lam6n3 ) ( * Nl2arg31 lam6n7 ) ( - ( * UndefDef0undef13_arg3 1 ) ) ) 0 ) ( = ( + ( * Nl2arg41 lam6n7 ) ( - ( * UndefDef0undef13_arg4 1 ) ) ) 0 ) ( = ( + ( * Nl2arg51 lam6n7 ) ( - ( * UndefDef0undef13_arg5 1 ) ) ) 0 ) ( = ( + ( * Nl2arg61 lam6n7 ) ( - ( * UndefDef0undef13_arg6 1 ) ) ) 0 ) ( = ( * 1 lam6n6 ) 0 ) ) ( and ( >= lam7n0 0 ) ( >= lam7n1 0 ) ( >= lam7n2 0 ) ( >= lam7n3 0 ) ( >= lam7n4 0 ) ( >= lam7n5 0 ) ( >= lam7n7 0 ) ( > ( + ( * 2 lam7n0 ) ( * 2 lam7n1 ) ( * 1 lam7n2 ) ( * ( - 1 ) lam7n3 ) ( * 3 lam7n5 ) ( * Nl2CT1 lam7n7 ) ( - 1 ( + 3 ( * ( - 1 ) UndefDef0undef13_CT ) ) ) ) 0 ) ( = ( + ( * 1 lam7n0 ) ( * ( - 1 ) lam7n1 ) ( * ( - 1 ) lam7n3 ) ( * ( - 1 ) lam7n5 ) ( * Nl2arg11 lam7n7 ) ( - ( * UndefDef0undef13_arg1 ( - 1 ) ) ) ) 0 ) ( = ( + ( * ( - 1 ) lam7n0 ) ( * ( - 1 ) lam7n1 ) ( * 1 lam7n2 ) ( * ( - 1 ) lam7n4 ) ( * Nl2arg21 lam7n7 ) ( - ( * UndefDef0undef13_arg2 ( - 1 ) ) ) ) 0 ) ( = ( + ( * 1 lam7n1 ) ( * ( - 1 ) lam7n2 ) ( * ( - 1 ) lam7n3 ) ( * Nl2arg31 lam7n7 ) ( - ( * UndefDef0undef13_arg3 ( - 1 ) ) ) ) 0 ) ( = ( + ( * Nl2arg41 lam7n7 ) ( - ( * UndefDef0undef13_arg4 ( - 1 ) ) ) ) 0 ) ( = ( + ( * Nl2arg51 lam7n7 ) ( - ( * UndefDef0undef13_arg5 ( - 1 ) ) ) ) 0 ) ( = ( + ( * Nl2arg61 lam7n7 ) ( - ( * UndefDef0undef13_arg6 ( - 1 ) ) ) ) 0 ) ( = ( * 1 lam7n6 ) 0 ) ) ( or ( = UndefCntr0_undef13 0 ) ( and ( >= lam8n0 0 ) ( >= lam8n1 0 ) ( >= lam8n2 0 ) ( >= lam8n3 0 ) ( >= lam8n4 0 ) ( >= lam8n5 0 ) ( >= lam8n7 0 ) ( > ( + ( * 2 lam8n0 ) ( * 2 lam8n1 ) ( * 1 lam8n2 ) ( * ( - 1 ) lam8n3 ) ( * 3 lam8n5 ) ( * Nl2CT1 lam8n7 ) ( - 1 ( + ( + ( + ( + ( + ( + ( + ( + ( + ( + ( + UndefCntr0_CT 0 ) 0 ) 0 ) 0 ) 0 ) 0 ) ( * UndefCntr0_undef13 UndefDef0undef13_CT ) ) 0 ) 0 ) 0 ) 0 ) ) ) 0 ) ( = ( + ( * 1 lam8n0 ) ( * ( - 1 ) lam8n1 ) ( * ( - 1 ) lam8n3 ) ( * ( - 1 ) lam8n5 ) ( * Nl2arg11 lam8n7 ) ( - ( + UndefCntr0_arg1 ( * UndefDef0undef13_arg1 UndefCntr0_undef13 ) ) ) ) 0 ) ( = ( + ( * ( - 1 ) lam8n0 ) ( * ( - 1 ) lam8n1 ) ( * 1 lam8n2 ) ( * ( - 1 ) lam8n4 ) ( * Nl2arg21 lam8n7 ) ( - ( + UndefCntr0_arg2 ( * UndefDef0undef13_arg2 UndefCntr0_undef13 ) ) ) ) 0 ) ( = ( + ( * 1 lam8n1 ) ( * ( - 1 ) lam8n2 ) ( * ( - 1 ) lam8n3 ) ( * Nl2arg31 lam8n7 ) ( - ( + UndefCntr0_arg3 ( * UndefDef0undef13_arg3 UndefCntr0_undef13 ) ) ) ) 0 ) ( = ( + ( * Nl2arg41 lam8n7 ) ( - ( + UndefCntr0_arg4 ( * UndefDef0undef13_arg4 UndefCntr0_undef13 ) ) ) ) 0 ) ( = ( + ( * Nl2arg51 lam8n7 ) ( - ( + UndefCntr0_arg5 ( * UndefDef0undef13_arg5 UndefCntr0_undef13 ) ) ) ) 0 ) ( = ( + ( * Nl2arg61 lam8n7 ) ( - ( + UndefCntr0_arg6 ( * UndefDef0undef13_arg6 UndefCntr0_undef13 ) ) ) ) 0 ) ( = ( + ( * 1 lam8n6 ) ( - UndefCntr0_undef15 ) ) 0 ) ( = ( - UndefCntr0_undef16 ) 0 ) ( = ( - UndefCntr0_undef17 ) 0 ) ( = ( - UndefCntr0_undef18 ) 0 ) ) ) ) ))
(assert ( or ( and ( >= lam9n0 0 ) ( >= lam9n1 0 ) ( >= lam9n2 0 ) ( >= lam9n3 0 ) ( >= lam9n4 0 ) ( >= lam9n5 0 ) ( >= lam9n6 0 ) ( >= lam9n7 0 ) ( > ( + ( * 2 lam9n0 ) ( * 2 lam9n1 ) ( * 1 lam9n2 ) ( * ( - 1 ) lam9n3 ) ( * 3 lam9n6 ) ( * Nl2CT1 lam9n7 ) ( - 1 ) ) 0 ) ( = ( + ( * 1 lam9n0 ) ( * ( - 1 ) lam9n1 ) ( * ( - 1 ) lam9n3 ) ( * ( - 1 ) lam9n6 ) ( * Nl2arg11 lam9n7 ) ) 0 ) ( = ( + ( * ( - 1 ) lam9n0 ) ( * ( - 1 ) lam9n1 ) ( * 1 lam9n2 ) ( * ( - 1 ) lam9n4 ) ( * Nl2arg21 lam9n7 ) ) 0 ) ( = ( + ( * 1 lam9n1 ) ( * ( - 1 ) lam9n2 ) ( * ( - 1 ) lam9n3 ) ( * ( - 1 ) lam9n5 ) ( * Nl2arg31 lam9n7 ) ) 0 ) ( = ( * Nl2arg41 lam9n7 ) 0 ) ( = ( * Nl2arg51 lam9n7 ) 0 ) ( = ( * Nl2arg61 lam9n7 ) 0 ) ) ( and ( and ( >= lam10n0 0 ) ( >= lam10n1 0 ) ( >= lam10n2 0 ) ( >= lam10n3 0 ) ( >= lam10n4 0 ) ( >= lam10n5 0 ) ( >= lam10n6 0 ) ( >= lam10n7 0 ) ( > ( + ( * 2 lam10n0 ) ( * 2 lam10n1 ) ( * 1 lam10n2 ) ( * ( - 1 ) lam10n3 ) ( * 3 lam10n6 ) ( * Nl2CT1 lam10n7 ) ( - 1 ( + 3 ( * ( - 1 ) UndefDef1undef19_CT ) ) ) ) 0 ) ( = ( + ( * 1 lam10n0 ) ( * ( - 1 ) lam10n1 ) ( * ( - 1 ) lam10n3 ) ( * ( - 1 ) lam10n6 ) ( * Nl2arg11 lam10n7 ) ( - ( * UndefDef1undef19_arg1 ( - 1 ) ) ) ) 0 ) ( = ( + ( * ( - 1 ) lam10n0 ) ( * ( - 1 ) lam10n1 ) ( * 1 lam10n2 ) ( * ( - 1 ) lam10n4 ) ( * Nl2arg21 lam10n7 ) ( - ( * UndefDef1undef19_arg2 ( - 1 ) ) ) ) 0 ) ( = ( + ( * 1 lam10n1 ) ( * ( - 1 ) lam10n2 ) ( * ( - 1 ) lam10n3 ) ( * ( - 1 ) lam10n5 ) ( * Nl2arg31 lam10n7 ) ( - ( * UndefDef1undef19_arg3 ( - 1 ) ) ) ) 0 ) ( = ( + ( * Nl2arg41 lam10n7 ) ( - ( * UndefDef1undef19_arg4 ( - 1 ) ) ) ) 0 ) ( = ( + ( * Nl2arg51 lam10n7 ) ( - ( * UndefDef1undef19_arg5 ( - 1 ) ) ) ) 0 ) ( = ( + ( * Nl2arg61 lam10n7 ) ( - ( * UndefDef1undef19_arg6 ( - 1 ) ) ) ) 0 ) ) ( and ( >= lam11n0 0 ) ( >= lam11n1 0 ) ( >= lam11n2 0 ) ( >= lam11n3 0 ) ( >= lam11n4 0 ) ( >= lam11n5 0 ) ( >= lam11n6 0 ) ( >= lam11n7 0 ) ( > ( + ( * 2 lam11n0 ) ( * 2 lam11n1 ) ( * 1 lam11n2 ) ( * ( - 1 ) lam11n3 ) ( * 3 lam11n6 ) ( * Nl2CT1 lam11n7 ) ( - 1 ( + ( + 0 0 ) ( * ( - 1 ) UndefDef1undef19_CT ) ) ) ) 0 ) ( = ( + ( * 1 lam11n0 ) ( * ( - 1 ) lam11n1 ) ( * ( - 1 ) lam11n3 ) ( * ( - 1 ) lam11n6 ) ( * Nl2arg11 lam11n7 ) ( - ( + 1 ( * UndefDef1undef19_arg1 ( - 1 ) ) ) ) ) 0 ) ( = ( + ( * ( - 1 ) lam11n0 ) ( * ( - 1 ) lam11n1 ) ( * 1 lam11n2 ) ( * ( - 1 ) lam11n4 ) ( * Nl2arg21 lam11n7 ) ( - ( * UndefDef1undef19_arg2 ( - 1 ) ) ) ) 0 ) ( = ( + ( * 1 lam11n1 ) ( * ( - 1 ) lam11n2 ) ( * ( - 1 ) lam11n3 ) ( * ( - 1 ) lam11n5 ) ( * Nl2arg31 lam11n7 ) ( - ( * UndefDef1undef19_arg3 ( - 1 ) ) ) ) 0 ) ( = ( + ( * Nl2arg41 lam11n7 ) ( - ( * UndefDef1undef19_arg4 ( - 1 ) ) ) ) 0 ) ( = ( + ( * Nl2arg51 lam11n7 ) ( - ( * UndefDef1undef19_arg5 ( - 1 ) ) ) ) 0 ) ( = ( + ( * Nl2arg61 lam11n7 ) ( - ( * UndefDef1undef19_arg6 ( - 1 ) ) ) ) 0 ) ) ( and ( >= lam12n0 0 ) ( >= lam12n1 0 ) ( >= lam12n2 0 ) ( >= lam12n3 0 ) ( >= lam12n4 0 ) ( >= lam12n5 0 ) ( >= lam12n6 0 ) ( >= lam12n7 0 ) ( > ( + ( * 2 lam12n0 ) ( * 2 lam12n1 ) ( * 1 lam12n2 ) ( * ( - 1 ) lam12n3 ) ( * 3 lam12n6 ) ( * Nl2CT1 lam12n7 ) ( - 1 ( - ( + ( + 0 0 ) ( * ( - 1 ) UndefDef1undef19_CT ) ) ) ) ) 0 ) ( = ( + ( * 1 lam12n0 ) ( * ( - 1 ) lam12n1 ) ( * ( - 1 ) lam12n3 ) ( * ( - 1 ) lam12n6 ) ( * Nl2arg11 lam12n7 ) ( - ( - ( + 1 ( * UndefDef1undef19_arg1 ( - 1 ) ) ) ) ) ) 0 ) ( = ( + ( * ( - 1 ) lam12n0 ) ( * ( - 1 ) lam12n1 ) ( * 1 lam12n2 ) ( * ( - 1 ) lam12n4 ) ( * Nl2arg21 lam12n7 ) ( - ( - ( * UndefDef1undef19_arg2 ( - 1 ) ) ) ) ) 0 ) ( = ( + ( * 1 lam12n1 ) ( * ( - 1 ) lam12n2 ) ( * ( - 1 ) lam12n3 ) ( * ( - 1 ) lam12n5 ) ( * Nl2arg31 lam12n7 ) ( - ( - ( * UndefDef1undef19_arg3 ( - 1 ) ) ) ) ) 0 ) ( = ( + ( * Nl2arg41 lam12n7 ) ( - ( - ( * UndefDef1undef19_arg4 ( - 1 ) ) ) ) ) 0 ) ( = ( + ( * Nl2arg51 lam12n7 ) ( - ( - ( * UndefDef1undef19_arg5 ( - 1 ) ) ) ) ) 0 ) ( = ( + ( * Nl2arg61 lam12n7 ) ( - ( - ( * UndefDef1undef19_arg6 ( - 1 ) ) ) ) ) 0 ) ) ( or ( = UndefCntr1_undef19 0 ) ( and ( >= lam13n0 0 ) ( >= lam13n1 0 ) ( >= lam13n2 0 ) ( >= lam13n3 0 ) ( >= lam13n4 0 ) ( >= lam13n5 0 ) ( >= lam13n6 0 ) ( >= lam13n7 0 ) ( > ( + ( * 2 lam13n0 ) ( * 2 lam13n1 ) ( * 1 lam13n2 ) ( * ( - 1 ) lam13n3 ) ( * 3 lam13n6 ) ( * Nl2CT1 lam13n7 ) ( - 1 ( + ( + ( + ( + ( + ( + ( + ( + ( + ( + UndefCntr1_CT 0 ) 0 ) 0 ) 0 ) 0 ) 0 ) ( * UndefCntr1_undef19 UndefDef1undef19_CT ) ) 0 ) 0 ) 0 ) ) ) 0 ) ( = ( + ( * 1 lam13n0 ) ( * ( - 1 ) lam13n1 ) ( * ( - 1 ) lam13n3 ) ( * ( - 1 ) lam13n6 ) ( * Nl2arg11 lam13n7 ) ( - ( + UndefCntr1_arg1 ( * UndefDef1undef19_arg1 UndefCntr1_undef19 ) ) ) ) 0 ) ( = ( + ( * ( - 1 ) lam13n0 ) ( * ( - 1 ) lam13n1 ) ( * 1 lam13n2 ) ( * ( - 1 ) lam13n4 ) ( * Nl2arg21 lam13n7 ) ( - ( + UndefCntr1_arg2 ( * UndefDef1undef19_arg2 UndefCntr1_undef19 ) ) ) ) 0 ) ( = ( + ( * 1 lam13n1 ) ( * ( - 1 ) lam13n2 ) ( * ( - 1 ) lam13n3 ) ( * ( - 1 ) lam13n5 ) ( * Nl2arg31 lam13n7 ) ( - ( + UndefCntr1_arg3 ( * UndefDef1undef19_arg3 UndefCntr1_undef19 ) ) ) ) 0 ) ( = ( + ( * Nl2arg41 lam13n7 ) ( - ( + UndefCntr1_arg4 ( * UndefDef1undef19_arg4 UndefCntr1_undef19 ) ) ) ) 0 ) ( = ( + ( * Nl2arg51 lam13n7 ) ( - ( + UndefCntr1_arg5 ( * UndefDef1undef19_arg5 UndefCntr1_undef19 ) ) ) ) 0 ) ( = ( + ( * Nl2arg61 lam13n7 ) ( - ( + UndefCntr1_arg6 ( * UndefDef1undef19_arg6 UndefCntr1_undef19 ) ) ) ) 0 ) ( = ( - UndefCntr1_undef22 ) 0 ) ( = ( - UndefCntr1_undef23 ) 0 ) ( = ( - UndefCntr1_undef24 ) 0 ) ) ) ) ))
(assert ( or ( = UndefCntr0_undef15 0 ) ( and ( and ( = UndefCntr0_arg1 0 ) ( = UndefCntr0_arg2 0 ) ( = UndefCntr0_arg3 0 ) ( = UndefCntr0_arg4 0 ) ( = UndefCntr0_arg5 0 ) ( = UndefCntr0_arg6 0 ) ( = UndefCntr0_undef13 0 ) ( = UndefCntr0_undef16 0 ) ( = UndefCntr0_undef17 0 ) ( = UndefCntr0_undef18 0 ) ) ( or ( and ( = FV_undef15_0 0 ) ( <= ( + UndefCntr0_CT ( * UndefCntr0_undef15 FV_undef15_0 ) ( * UndefCntr0_arg1 FV_arg1_0 ) ( * UndefCntr0_arg2 FV_arg2_0 ) ( * UndefCntr0_arg3 FV_arg3_0 ) ( * UndefCntr0_arg4 FV_arg4_0 ) ( * UndefCntr0_arg5 FV_arg5_0 ) ( * UndefCntr0_arg6 FV_arg6_0 ) ( * UndefCntr0_undef13 FV_undef13_0 ) ( * UndefCntr0_undef16 FV_undef16_0 ) ( * UndefCntr0_undef17 FV_undef17_0 ) ( * UndefCntr0_undef18 FV_undef18_0 ) ) 0 ) ) ( and ( = FV_undef15_0 0 ) ( <= ( + UndefCntr0_CT ( * UndefCntr0_undef15 FV_undef15_0 ) ( * UndefCntr0_arg1 FV_arg1_0 ) ( * UndefCntr0_arg2 FV_arg2_0 ) ( * UndefCntr0_arg3 FV_arg3_0 ) ( * UndefCntr0_arg4 FV_arg4_0 ) ( * UndefCntr0_arg5 FV_arg5_0 ) ( * UndefCntr0_arg6 FV_arg6_0 ) ( * UndefCntr0_undef13 FV_undef13_0 ) ( * UndefCntr0_undef16 FV_undef16_0 ) ( * UndefCntr0_undef17 FV_undef17_0 ) ( * UndefCntr0_undef18 FV_undef18_0 ) ) 0 ) ) ) ) ))
(assert ( and ( >= lam14n0 0 ) ( >= lam14n1 0 ) ( >= lam14n2 0 ) ( >= lam14n3 0 ) ( >= lam14n4 0 ) ( >= lam14n5 0 ) ( >= lam14n6 0 ) ( > ( + ( * 2 lam14n0 ) ( * 2 lam14n1 ) ( * 1 lam14n2 ) ( * ( - 1 ) lam14n3 ) ( * Nl2CT1 lam14n6 ) ( - 1 ) ) 0 ) ( = ( + ( * 1 lam14n0 ) ( * ( - 1 ) lam14n1 ) ( * ( - 1 ) lam14n3 ) ( * Nl2arg11 lam14n6 ) ) 0 ) ( = ( + ( * ( - 1 ) lam14n0 ) ( * ( - 1 ) lam14n1 ) ( * ( - 1 ) lam14n2 ) ( * ( - 1 ) lam14n4 ) ( * ( - 1 ) lam14n5 ) ( * Nl2arg21 lam14n6 ) ) 0 ) ( = ( + ( * 1 lam14n1 ) ( * ( - 1 ) lam14n2 ) ( * ( - 1 ) lam14n3 ) ( * 1 lam14n5 ) ( * Nl2arg31 lam14n6 ) ) 0 ) ( = ( * Nl2arg41 lam14n6 ) 0 ) ( = ( * Nl2arg51 lam14n6 ) 0 ) ( = ( * Nl2arg61 lam14n6 ) 0 ) ))
(assert ( and ( <= ( + Nl2CT1 ( * Nl2arg11 FV_arg1_3 ) ( * Nl2arg21 FV_arg2_3 ) ( * Nl2arg31 FV_arg3_3 ) ( * Nl2arg41 FV_arg4_3 ) ( * Nl2arg51 FV_arg5_3 ) ( * Nl2arg61 FV_arg6_3 ) ) 0 ) ( or ( and ( <= ( + 2 FV_arg1_3 ( * ( - 1 ) FV_arg2_3 ) ) 0 ) ( <= ( + 2 ( * ( - 1 ) FV_arg1_3 ) ( * ( - 1 ) FV_arg2_3 ) FV_arg3_3 ) 0 ) ( <= ( + 1 FV_arg2_3 ( * ( - 1 ) FV_arg3_3 ) ) 0 ) ( <= ( + ( - 1 ) ( * ( - 1 ) FV_arg1_3 ) ( * ( - 1 ) FV_arg3_3 ) ) 0 ) ( <= ( + ( * ( - 1 ) FV_arg1_3 ) FV_undef13_3 ) 0 ) ( <= ( * ( - 1 ) FV_arg2_3 ) 0 ) ( <= ( + 3 ( * ( - 1 ) FV_arg1_3 ) ) 0 ) ( <= ( + 3 ( * ( - 1 ) FV_undef13_3 ) ) 0 ) ( = FV_undef15_3 0 ) ) ( and ( <= ( + 2 FV_arg1_3 ( * ( - 1 ) FV_arg2_3 ) ) 0 ) ( <= ( + 2 ( * ( - 1 ) FV_arg1_3 ) ( * ( - 1 ) FV_arg2_3 ) FV_arg3_3 ) 0 ) ( <= ( + 1 FV_arg2_3 ( * ( - 1 ) FV_arg3_3 ) ) 0 ) ( <= ( + ( - 1 ) ( * ( - 1 ) FV_arg1_3 ) ( * ( - 1 ) FV_arg3_3 ) ) 0 ) ( <= ( * ( - 1 ) FV_arg2_3 ) 0 ) ( <= ( * ( - 1 ) FV_arg3_3 ) 0 ) ( <= ( + 3 ( * ( - 1 ) FV_arg1_3 ) ) 0 ) ( <= ( + 3 ( * ( - 1 ) FV_undef19_3 ) ) 0 ) ( = ( + FV_arg1_3 ( * ( - 1 ) FV_undef19_3 ) ) 0 ) ) ) ))
(check-sat)
(exit)
